c WARNING: for repeatability, setting FPU to use double precision
d VARIABLES            228738       
d CONSTRAINTS          993582       
c ============================[ Problem Statistics ]=============================
c |                                                                             |
c |  Number of variables:        228738                                         |
c |  Number of clauses:          993582                                         |
c |  Parse time:                   0.17 s                                       |
c |                                                                             |
c ============================[ Search Statistics ]==============================
c | Conflicts |          ORIGINAL         |          LEARNT          | Progress |
c |           |    Vars  Clauses Literals |    Limit  Clauses Lit/Cl |          |
c ===============================================================================
c |       100 |  188479   889160  2156409 |   326025      100     46 | 17.600 % |
c |       250 |  188479   889160  2156409 |   358627      250     54 | 17.600 % |
c |       475 |  188479   889160  2156409 |   394490      475     70 | 17.600 % |
c |       812 |  188479   889160  2156409 |   433939      812     87 | 17.600 % |
c |      1318 |  188479   889160  2156409 |   477333     1318    104 | 17.600 % |
c |      2077 |  188479   889160  2156409 |   525067     2077     99 | 17.600 % |
c |      3216 |  188479   889160  2156409 |   577573     3216    162 | 17.600 % |
c |      4924 |  188479   889160  2156409 |   635331     4924    138 | 17.600 % |
c |      7486 |  188479   889160  2156409 |   698864     7486    153 | 17.600 % |
c |     11330 |  188479   889160  2156409 |   768750    11330    151 | 17.600 % |
c |     17096 |  188479   889160  2156409 |   845625    17096    167 | 17.600 % |
c |     25745 |  188479   889160  2156409 |   930188    25745    173 | 17.600 % |
c |     38719 |  188479   889160  2156409 |  1023207    38719    179 | 17.600 % |
c |     58180 |  188479   889160  2156409 |  1125527    58180    213 | 17.600 % |
c ===============================================================================
c restarts              : 218
c conflicts             : 69214          (1902 /sec)
c decisions             : 410101         (0.00 % random) (11267 /sec)
c propagations          : 163328917      (4487271 /sec)
c conflict literals     : 14292366       (13.13 % deleted)
d RESTARTS             218
d FAILURES             69214        
d NODES                410101       
d BACKTRACKS           410101       
d PROPAGATIONS         163328917    
d NOGOODSIZE           206.50 
d MEMORY               147.00 
d TIME                 36.3983 

s SATISFIABLE
